data/lp_files/pEFS/59_3.lp
\ Model foo
\ LP format - for model browsing. Use MPS format to capture full model detail.
Minimize
  z
Subject To
 allocateEach[1]: x[1,1] + x[2,1] + x[3,1] = 1
 allocateEach[2]: x[1,2] + x[2,2] + x[3,2] = 1
 allocateEach[3]: x[1,3] + x[2,3] + x[3,3] = 1
 allocateEach[4]: x[1,4] + x[2,4] + x[3,4] = 1
 allocateEach[5]: x[1,5] + x[2,5] + x[3,5] = 1
 allocateEach[6]: x[1,6] + x[2,6] + x[3,6] = 1
 allocateEach[7]: x[1,7] + x[2,7] + x[3,7] = 1
 allocateEach[8]: x[1,8] + x[2,8] + x[3,8] = 1
 allocateEach[9]: x[1,9] + x[2,9] + x[3,9] = 1
 allocateEach[10]: x[1,10] + x[2,10] + x[3,10] = 1
 allocateEach[11]: x[1,11] + x[2,11] + x[3,11] = 1
 allocateEach[12]: x[1,12] + x[2,12] + x[3,12] = 1
 allocateEach[13]: x[1,13] + x[2,13] + x[3,13] = 1
 allocateEach[14]: x[1,14] + x[2,14] + x[3,14] = 1
 allocateEach[15]: x[1,15] + x[2,15] + x[3,15] = 1
 allocateEach[16]: x[1,16] + x[2,16] + x[3,16] = 1
 allocateEach[17]: x[1,17] + x[2,17] + x[3,17] = 1
 allocateEach[18]: x[1,18] + x[2,18] + x[3,18] = 1
 allocateEach[19]: x[1,19] + x[2,19] + x[3,19] = 1
 allocateAllCash: cashProportion[1] + cashProportion[2] + cashProportion[3]
   = 1
 findWorstP[1,2]: z + 0.0186964813222152 cashProportion[1]
   - 0.0186964813222152 cashProportion[2] + 0.0880043375836668 x[1,1]
   + 0.0909116404292712 x[1,2] + 0.02354821822533 x[1,3]
   + 0.0612496728115769 x[1,4] + 0.0166024754141271 x[1,5]
   + 0.0849942040907901 x[1,6] + 0.0672045021127024 x[1,7]
   + 0.0744961298283663 x[1,8] + 0.00155180794974386 x[1,9]
   + 0.0736173952062222 x[1,10] + 0.00457128968328161 x[1,11]
   + 0.0839939423400516 x[1,12] + 0.000196313 x[1,13]
   + 0.0319896795423101 x[1,14] + 0.0611842351269491 x[1,15]
   + 0.0282971244811727 x[1,16] + 0.0247260965486296 x[1,17]
   + 0.0882193471188722 x[1,18] + 0.075945107130838 x[1,19]
   - 0.0880043375836668 x[2,1] - 0.0909116404292712 x[2,2]
   - 0.02354821822533 x[2,3] - 0.0612496728115769 x[2,4]
   - 0.0166024754141271 x[2,5] - 0.0849942040907901 x[2,6]
   - 0.0672045021127024 x[2,7] - 0.0744961298283663 x[2,8]
   - 0.00155180794974386 x[2,9] - 0.0736173952062222 x[2,10]
   - 0.00457128968328161 x[2,11] - 0.0839939423400516 x[2,12]
   - 0.000196313 x[2,13] - 0.0319896795423101 x[2,14]
   - 0.0611842351269491 x[2,15] - 0.0282971244811727 x[2,16]
   - 0.0247260965486296 x[2,17] - 0.0882193471188722 x[2,18]
   - 0.075945107130838 x[2,19] >= 0
 findWorstP[1,3]: z + 0.0186964813222152 cashProportion[1]
   - 0.0186964813222152 cashProportion[3] + 0.0880043375836668 x[1,1]
   + 0.0909116404292712 x[1,2] + 0.02354821822533 x[1,3]
   + 0.0612496728115769 x[1,4] + 0.0166024754141271 x[1,5]
   + 0.0849942040907901 x[1,6] + 0.0672045021127024 x[1,7]
   + 0.0744961298283663 x[1,8] + 0.00155180794974386 x[1,9]
   + 0.0736173952062222 x[1,10] + 0.00457128968328161 x[1,11]
   + 0.0839939423400516 x[1,12] + 0.000196313 x[1,13]
   + 0.0319896795423101 x[1,14] + 0.0611842351269491 x[1,15]
   + 0.0282971244811727 x[1,16] + 0.0247260965486296 x[1,17]
   + 0.0882193471188722 x[1,18] + 0.075945107130838 x[1,19]
   - 0.0880043375836668 x[3,1] - 0.0909116404292712 x[3,2]
   - 0.02354821822533 x[3,3] - 0.0612496728115769 x[3,4]
   - 0.0166024754141271 x[3,5] - 0.0849942040907901 x[3,6]
   - 0.0672045021127024 x[3,7] - 0.0744961298283663 x[3,8]
   - 0.00155180794974386 x[3,9] - 0.0736173952062222 x[3,10]
   - 0.00457128968328161 x[3,11] - 0.0839939423400516 x[3,12]
   - 0.000196313 x[3,13] - 0.0319896795423101 x[3,14]
   - 0.0611842351269491 x[3,15] - 0.0282971244811727 x[3,16]
   - 0.0247260965486296 x[3,17] - 0.0882193471188722 x[3,18]
   - 0.075945107130838 x[3,19] >= 0
 findWorstP[2,1]: z - 0.0273755098688713 cashProportion[1]
   + 0.0273755098688713 cashProportion[2] - 0.00644693257411919 x[1,1]
   - 0.00396944893098634 x[1,2] - 0.1105286210955679 x[1,3]
   - 0.1279394453721701 x[1,4] - 0.0497139259218703 x[1,5]
   - 0.0652769032823236 x[1,6] - 0.0855895316050262 x[1,7]
   - 0.0190533548687344 x[1,8] - 0.1011388212105451 x[1,9]
   - 0.0137014426893701 x[1,10] - 0.03116701798571 x[1,11]
   - 0.00829477949026801 x[1,12] - 0.0240083221550001 x[1,13]
   - 0.0893947274767993 x[1,14] - 0.0487147198116565 x[1,15]
   - 0.0187932875249802 x[1,16] - 0.0582413972460237 x[1,17]
   - 0.0850146458977799 x[1,18] - 0.025637164992198 x[1,19]
   + 0.00644693257411919 x[2,1] + 0.00396944893098634 x[2,2]
   + 0.1105286210955679 x[2,3] + 0.1279394453721701 x[2,4]
   + 0.0497139259218703 x[2,5] + 0.0652769032823236 x[2,6]
   + 0.0855895316050262 x[2,7] + 0.0190533548687344 x[2,8]
   + 0.1011388212105451 x[2,9] + 0.0137014426893701 x[2,10]
   + 0.03116701798571 x[2,11] + 0.00829477949026801 x[2,12]
   + 0.0240083221550001 x[2,13] + 0.0893947274767993 x[2,14]
   + 0.0487147198116565 x[2,15] + 0.0187932875249802 x[2,16]
   + 0.0582413972460237 x[2,17] + 0.0850146458977799 x[2,18]
   + 0.025637164992198 x[2,19] >= 0
 findWorstP[2,3]: z + 0.0273755098688713 cashProportion[2]
   - 0.0273755098688713 cashProportion[3] + 0.00644693257411919 x[2,1]
   + 0.00396944893098634 x[2,2] + 0.1105286210955679 x[2,3]
   + 0.1279394453721701 x[2,4] + 0.0497139259218703 x[2,5]
   + 0.0652769032823236 x[2,6] + 0.0855895316050262 x[2,7]
   + 0.0190533548687344 x[2,8] + 0.1011388212105451 x[2,9]
   + 0.0137014426893701 x[2,10] + 0.03116701798571 x[2,11]
   + 0.00829477949026801 x[2,12] + 0.0240083221550001 x[2,13]
   + 0.0893947274767993 x[2,14] + 0.0487147198116565 x[2,15]
   + 0.0187932875249802 x[2,16] + 0.0582413972460237 x[2,17]
   + 0.0850146458977799 x[2,18] + 0.025637164992198 x[2,19]
   - 0.00644693257411919 x[3,1] - 0.00396944893098634 x[3,2]
   - 0.1105286210955679 x[3,3] - 0.1279394453721701 x[3,4]
   - 0.0497139259218703 x[3,5] - 0.0652769032823236 x[3,6]
   - 0.0855895316050262 x[3,7] - 0.0190533548687344 x[3,8]
   - 0.1011388212105451 x[3,9] - 0.0137014426893701 x[3,10]
   - 0.03116701798571 x[3,11] - 0.00829477949026801 x[3,12]
   - 0.0240083221550001 x[3,13] - 0.0893947274767993 x[3,14]
   - 0.0487147198116565 x[3,15] - 0.0187932875249802 x[3,16]
   - 0.0582413972460237 x[3,17] - 0.0850146458977799 x[3,18]
   - 0.025637164992198 x[3,19] >= 0
 findWorstP[3,1]: z - 0.0148585098400481 cashProportion[1]
   + 0.0148585098400481 cashProportion[3] - 0.0301330579556176 x[1,1]
   - 0.0207944845211474 x[1,2] - 0.00483644495293567 x[1,3]
   - 0.059879794655394 x[1,4] - 0.0527179929124908 x[1,5]
   - 0.0609718951286376 x[1,6] - 0.0486764782359977 x[1,7]
   - 0.0559200017830212 x[1,8] - 0.0615588062673195 x[1,9]
   - 0.0397688015868889 x[1,10] - 0.0428668008885389 x[1,11]
   - 0.0653700140412918 x[1,12] - 0.0709122382116298 x[1,13]
   - 0.069448674992385 x[1,14] - 0.0709122382116298 x[1,15]
   - 0.0706893605640291 x[1,16] - 0.0409129068445726 x[1,17]
   - 0.0689434856578234 x[1,18] - 0.0498280127486014 x[1,19]
   + 0.0301330579556176 x[3,1] + 0.0207944845211474 x[3,2]
   + 0.00483644495293567 x[3,3] + 0.059879794655394 x[3,4]
   + 0.0527179929124908 x[3,5] + 0.0609718951286376 x[3,6]
   + 0.0486764782359977 x[3,7] + 0.0559200017830212 x[3,8]
   + 0.0615588062673195 x[3,9] + 0.0397688015868889 x[3,10]
   + 0.0428668008885389 x[3,11] + 0.0653700140412918 x[3,12]
   + 0.0709122382116298 x[3,13] + 0.069448674992385 x[3,14]
   + 0.0709122382116298 x[3,15] + 0.0706893605640291 x[3,16]
   + 0.0409129068445726 x[3,17] + 0.0689434856578234 x[3,18]
   + 0.0498280127486014 x[3,19] >= 0
 findWorstP[3,2]: z - 0.0148585098400481 cashProportion[2]
   + 0.0148585098400481 cashProportion[3] - 0.0301330579556176 x[2,1]
   - 0.0207944845211474 x[2,2] - 0.00483644495293567 x[2,3]
   - 0.059879794655394 x[2,4] - 0.0527179929124908 x[2,5]
   - 0.0609718951286376 x[2,6] - 0.0486764782359977 x[2,7]
   - 0.0559200017830212 x[2,8] - 0.0615588062673195 x[2,9]
   - 0.0397688015868889 x[2,10] - 0.0428668008885389 x[2,11]
   - 0.0653700140412918 x[2,12] - 0.0709122382116298 x[2,13]
   - 0.069448674992385 x[2,14] - 0.0709122382116298 x[2,15]
   - 0.0706893605640291 x[2,16] - 0.0409129068445726 x[2,17]
   - 0.0689434856578234 x[2,18] - 0.0498280127486014 x[2,19]
   + 0.0301330579556176 x[3,1] + 0.0207944845211474 x[3,2]
   + 0.00483644495293567 x[3,3] + 0.059879794655394 x[3,4]
   + 0.0527179929124908 x[3,5] + 0.0609718951286376 x[3,6]
   + 0.0486764782359977 x[3,7] + 0.0559200017830212 x[3,8]
   + 0.0615588062673195 x[3,9] + 0.0397688015868889 x[3,10]
   + 0.0428668008885389 x[3,11] + 0.0653700140412918 x[3,12]
   + 0.0709122382116298 x[3,13] + 0.069448674992385 x[3,14]
   + 0.0709122382116298 x[3,15] + 0.0706893605640291 x[3,16]
   + 0.0409129068445726 x[3,17] + 0.0689434856578234 x[3,18]
   + 0.0498280127486014 x[3,19] >= 0
Bounds
 z <= 1
 -infinity <= cashProportion[1] <= 1
 -infinity <= cashProportion[2] <= 1
 -infinity <= cashProportion[3] <= 1
Binaries
 x[1,1] x[1,2] x[1,3] x[1,4] x[1,5] x[1,6] x[1,7] x[1,8] x[1,9] x[1,10]
 x[1,11] x[1,12] x[1,13] x[1,14] x[1,15] x[1,16] x[1,17] x[1,18] x[1,19]
 x[2,1] x[2,2] x[2,3] x[2,4] x[2,5] x[2,6] x[2,7] x[2,8] x[2,9] x[2,10]
 x[2,11] x[2,12] x[2,13] x[2,14] x[2,15] x[2,16] x[2,17] x[2,18] x[2,19]
 x[3,1] x[3,2] x[3,3] x[3,4] x[3,5] x[3,6] x[3,7] x[3,8] x[3,9] x[3,10]
 x[3,11] x[3,12] x[3,13] x[3,14] x[3,15] x[3,16] x[3,17] x[3,18] x[3,19]
End
