data/mps_files/pEFS/59_3.mps
NAME foo
ROWS
 N  OBJ
 E  allocateEach[1]
 E  allocateEach[2]
 E  allocateEach[3]
 E  allocateEach[4]
 E  allocateEach[5]
 E  allocateEach[6]
 E  allocateEach[7]
 E  allocateEach[8]
 E  allocateEach[9]
 E  allocateEach[10]
 E  allocateEach[11]
 E  allocateEach[12]
 E  allocateEach[13]
 E  allocateEach[14]
 E  allocateEach[15]
 E  allocateEach[16]
 E  allocateEach[17]
 E  allocateEach[18]
 E  allocateEach[19]
 E  allocateAllCash
 G  findWorstP[1,2]
 G  findWorstP[1,3]
 G  findWorstP[2,1]
 G  findWorstP[2,3]
 G  findWorstP[3,1]
 G  findWorstP[3,2]
COLUMNS
    z         OBJ       1
    z         findWorstP[1,2]  1
    z         findWorstP[1,3]  1
    z         findWorstP[2,1]  1
    z         findWorstP[2,3]  1
    z         findWorstP[3,1]  1
    z         findWorstP[3,2]  1
    cashProportion[1]  allocateAllCash  1
    cashProportion[1]  findWorstP[1,2]  1.8696481322215162e-02
    cashProportion[1]  findWorstP[1,3]  1.8696481322215162e-02
    cashProportion[1]  findWorstP[2,1]  -2.7375509868871314e-02
    cashProportion[1]  findWorstP[3,1]  -1.4858509840048146e-02
    cashProportion[2]  allocateAllCash  1
    cashProportion[2]  findWorstP[1,2]  -1.8696481322215162e-02
    cashProportion[2]  findWorstP[2,1]  2.7375509868871314e-02
    cashProportion[2]  findWorstP[2,3]  2.7375509868871314e-02
    cashProportion[2]  findWorstP[3,2]  -1.4858509840048146e-02
    cashProportion[3]  allocateAllCash  1
    cashProportion[3]  findWorstP[1,3]  -1.8696481322215162e-02
    cashProportion[3]  findWorstP[2,3]  -2.7375509868871314e-02
    cashProportion[3]  findWorstP[3,1]  1.4858509840048146e-02
    cashProportion[3]  findWorstP[3,2]  1.4858509840048146e-02
    MARKER    'MARKER'                 'INTORG'
    x[1,1]    allocateEach[1]  1
    x[1,1]    findWorstP[1,2]  8.8004337583666770e-02
    x[1,1]    findWorstP[1,3]  8.8004337583666770e-02
    x[1,1]    findWorstP[2,1]  -6.4469325741191947e-03
    x[1,1]    findWorstP[3,1]  -3.0133057955617638e-02
    x[1,2]    allocateEach[2]  1
    x[1,2]    findWorstP[1,2]  9.0911640429271218e-02
    x[1,2]    findWorstP[1,3]  9.0911640429271218e-02
    x[1,2]    findWorstP[2,1]  -3.9694489309863405e-03
    x[1,2]    findWorstP[3,1]  -2.0794484521147377e-02
    x[1,3]    allocateEach[3]  1
    x[1,3]    findWorstP[1,2]  2.3548218225329997e-02
    x[1,3]    findWorstP[1,3]  2.3548218225329997e-02
    x[1,3]    findWorstP[2,1]  -1.1052862109556792e-01
    x[1,3]    findWorstP[3,1]  -4.8364449529356719e-03
    x[1,4]    allocateEach[4]  1
    x[1,4]    findWorstP[1,2]  6.1249672811576866e-02
    x[1,4]    findWorstP[1,3]  6.1249672811576866e-02
    x[1,4]    findWorstP[2,1]  -1.2793944537217009e-01
    x[1,4]    findWorstP[3,1]  -5.9879794655394031e-02
    x[1,5]    allocateEach[5]  1
    x[1,5]    findWorstP[1,2]  1.6602475414127064e-02
    x[1,5]    findWorstP[1,3]  1.6602475414127064e-02
    x[1,5]    findWorstP[2,1]  -4.9713925921870308e-02
    x[1,5]    findWorstP[3,1]  -5.2717992912490817e-02
    x[1,6]    allocateEach[6]  1
    x[1,6]    findWorstP[1,2]  8.4994204090790129e-02
    x[1,6]    findWorstP[1,3]  8.4994204090790129e-02
    x[1,6]    findWorstP[2,1]  -6.5276903282323648e-02
    x[1,6]    findWorstP[3,1]  -6.0971895128637564e-02
    x[1,7]    allocateEach[7]  1
    x[1,7]    findWorstP[1,2]  6.7204502112702388e-02
    x[1,7]    findWorstP[1,3]  6.7204502112702388e-02
    x[1,7]    findWorstP[2,1]  -8.5589531605026151e-02
    x[1,7]    findWorstP[3,1]  -4.8676478235997724e-02
    x[1,8]    allocateEach[8]  1
    x[1,8]    findWorstP[1,2]  7.4496129828366314e-02
    x[1,8]    findWorstP[1,3]  7.4496129828366314e-02
    x[1,8]    findWorstP[2,1]  -1.9053354868734433e-02
    x[1,8]    findWorstP[3,1]  -0.0559200017830212
    x[1,9]    allocateEach[9]  1
    x[1,9]    findWorstP[1,2]  1.5518079497438583e-03
    x[1,9]    findWorstP[1,3]  1.5518079497438583e-03
    x[1,9]    findWorstP[2,1]  -1.0113882121054506e-01
    x[1,9]    findWorstP[3,1]  -6.1558806267319466e-02
    x[1,10]   allocateEach[10]  1
    x[1,10]   findWorstP[1,2]  0.0736173952062222
    x[1,10]   findWorstP[1,3]  0.0736173952062222
    x[1,10]   findWorstP[2,1]  -1.3701442689370090e-02
    x[1,10]   findWorstP[3,1]  -3.9768801586888863e-02
    x[1,11]   allocateEach[11]  1
    x[1,11]   findWorstP[1,2]  4.5712896832816067e-03
    x[1,11]   findWorstP[1,3]  4.5712896832816067e-03
    x[1,11]   findWorstP[2,1]  -3.1167017985709991e-02
    x[1,11]   findWorstP[3,1]  -0.0428668008885389
    x[1,12]   allocateEach[12]  1
    x[1,12]   findWorstP[1,2]  8.3993942340051614e-02
    x[1,12]   findWorstP[1,3]  8.3993942340051614e-02
    x[1,12]   findWorstP[2,1]  -8.2947794902680071e-03
    x[1,12]   findWorstP[3,1]  -6.5370014041291821e-02
    x[1,13]   allocateEach[13]  1
    x[1,13]   findWorstP[1,2]  1.9631305388325917e-04
    x[1,13]   findWorstP[1,3]  1.9631305388325917e-04
    x[1,13]   findWorstP[2,1]  -2.4008322155000140e-02
    x[1,13]   findWorstP[3,1]  -7.0912238211629772e-02
    x[1,14]   allocateEach[14]  1
    x[1,14]   findWorstP[1,2]  3.1989679542310141e-02
    x[1,14]   findWorstP[1,3]  3.1989679542310141e-02
    x[1,14]   findWorstP[2,1]  -8.9394727476799274e-02
    x[1,14]   findWorstP[3,1]  -6.9448674992385023e-02
    x[1,15]   allocateEach[15]  1
    x[1,15]   findWorstP[1,2]  6.1184235126949114e-02
    x[1,15]   findWorstP[1,3]  6.1184235126949114e-02
    x[1,15]   findWorstP[2,1]  -4.8714719811656496e-02
    x[1,15]   findWorstP[3,1]  -7.0912238211629772e-02
    x[1,16]   allocateEach[16]  1
    x[1,16]   findWorstP[1,2]  2.8297124481172650e-02
    x[1,16]   findWorstP[1,3]  2.8297124481172650e-02
    x[1,16]   findWorstP[2,1]  -1.8793287524980155e-02
    x[1,16]   findWorstP[3,1]  -7.0689360564029052e-02
    x[1,17]   allocateEach[17]  1
    x[1,17]   findWorstP[1,2]  2.4726096548629551e-02
    x[1,17]   findWorstP[1,3]  2.4726096548629551e-02
    x[1,17]   findWorstP[2,1]  -5.8241397246023716e-02
    x[1,17]   findWorstP[3,1]  -4.0912906844572564e-02
    x[1,18]   allocateEach[18]  1
    x[1,18]   findWorstP[1,2]  8.8219347118872235e-02
    x[1,18]   findWorstP[1,3]  8.8219347118872235e-02
    x[1,18]   findWorstP[2,1]  -8.5014645897779850e-02
    x[1,18]   findWorstP[3,1]  -6.8943485657823392e-02
    x[1,19]   allocateEach[19]  1
    x[1,19]   findWorstP[1,2]  7.5945107130837991e-02
    x[1,19]   findWorstP[1,3]  7.5945107130837991e-02
    x[1,19]   findWorstP[2,1]  -2.5637164992197984e-02
    x[1,19]   findWorstP[3,1]  -4.9828012748601450e-02
    x[2,1]    allocateEach[1]  1
    x[2,1]    findWorstP[1,2]  -8.8004337583666770e-02
    x[2,1]    findWorstP[2,1]  6.4469325741191947e-03
    x[2,1]    findWorstP[2,3]  6.4469325741191947e-03
    x[2,1]    findWorstP[3,2]  -3.0133057955617638e-02
    x[2,2]    allocateEach[2]  1
    x[2,2]    findWorstP[1,2]  -9.0911640429271218e-02
    x[2,2]    findWorstP[2,1]  3.9694489309863405e-03
    x[2,2]    findWorstP[2,3]  3.9694489309863405e-03
    x[2,2]    findWorstP[3,2]  -2.0794484521147377e-02
    x[2,3]    allocateEach[3]  1
    x[2,3]    findWorstP[1,2]  -2.3548218225329997e-02
    x[2,3]    findWorstP[2,1]  1.1052862109556792e-01
    x[2,3]    findWorstP[2,3]  1.1052862109556792e-01
    x[2,3]    findWorstP[3,2]  -4.8364449529356719e-03
    x[2,4]    allocateEach[4]  1
    x[2,4]    findWorstP[1,2]  -6.1249672811576866e-02
    x[2,4]    findWorstP[2,1]  1.2793944537217009e-01
    x[2,4]    findWorstP[2,3]  1.2793944537217009e-01
    x[2,4]    findWorstP[3,2]  -5.9879794655394031e-02
    x[2,5]    allocateEach[5]  1
    x[2,5]    findWorstP[1,2]  -1.6602475414127064e-02
    x[2,5]    findWorstP[2,1]  4.9713925921870308e-02
    x[2,5]    findWorstP[2,3]  4.9713925921870308e-02
    x[2,5]    findWorstP[3,2]  -5.2717992912490817e-02
    x[2,6]    allocateEach[6]  1
    x[2,6]    findWorstP[1,2]  -8.4994204090790129e-02
    x[2,6]    findWorstP[2,1]  6.5276903282323648e-02
    x[2,6]    findWorstP[2,3]  6.5276903282323648e-02
    x[2,6]    findWorstP[3,2]  -6.0971895128637564e-02
    x[2,7]    allocateEach[7]  1
    x[2,7]    findWorstP[1,2]  -6.7204502112702388e-02
    x[2,7]    findWorstP[2,1]  8.5589531605026151e-02
    x[2,7]    findWorstP[2,3]  8.5589531605026151e-02
    x[2,7]    findWorstP[3,2]  -4.8676478235997724e-02
    x[2,8]    allocateEach[8]  1
    x[2,8]    findWorstP[1,2]  -7.4496129828366314e-02
    x[2,8]    findWorstP[2,1]  1.9053354868734433e-02
    x[2,8]    findWorstP[2,3]  1.9053354868734433e-02
    x[2,8]    findWorstP[3,2]  -0.0559200017830212
    x[2,9]    allocateEach[9]  1
    x[2,9]    findWorstP[1,2]  -1.5518079497438583e-03
    x[2,9]    findWorstP[2,1]  1.0113882121054506e-01
    x[2,9]    findWorstP[2,3]  1.0113882121054506e-01
    x[2,9]    findWorstP[3,2]  -6.1558806267319466e-02
    x[2,10]   allocateEach[10]  1
    x[2,10]   findWorstP[1,2]  -0.0736173952062222
    x[2,10]   findWorstP[2,1]  1.3701442689370090e-02
    x[2,10]   findWorstP[2,3]  1.3701442689370090e-02
    x[2,10]   findWorstP[3,2]  -3.9768801586888863e-02
    x[2,11]   allocateEach[11]  1
    x[2,11]   findWorstP[1,2]  -4.5712896832816067e-03
    x[2,11]   findWorstP[2,1]  3.1167017985709991e-02
    x[2,11]   findWorstP[2,3]  3.1167017985709991e-02
    x[2,11]   findWorstP[3,2]  -0.0428668008885389
    x[2,12]   allocateEach[12]  1
    x[2,12]   findWorstP[1,2]  -8.3993942340051614e-02
    x[2,12]   findWorstP[2,1]  8.2947794902680071e-03
    x[2,12]   findWorstP[2,3]  8.2947794902680071e-03
    x[2,12]   findWorstP[3,2]  -6.5370014041291821e-02
    x[2,13]   allocateEach[13]  1
    x[2,13]   findWorstP[1,2]  -1.9631305388325917e-04
    x[2,13]   findWorstP[2,1]  2.4008322155000140e-02
    x[2,13]   findWorstP[2,3]  2.4008322155000140e-02
    x[2,13]   findWorstP[3,2]  -7.0912238211629772e-02
    x[2,14]   allocateEach[14]  1
    x[2,14]   findWorstP[1,2]  -3.1989679542310141e-02
    x[2,14]   findWorstP[2,1]  8.9394727476799274e-02
    x[2,14]   findWorstP[2,3]  8.9394727476799274e-02
    x[2,14]   findWorstP[3,2]  -6.9448674992385023e-02
    x[2,15]   allocateEach[15]  1
    x[2,15]   findWorstP[1,2]  -6.1184235126949114e-02
    x[2,15]   findWorstP[2,1]  4.8714719811656496e-02
    x[2,15]   findWorstP[2,3]  4.8714719811656496e-02
    x[2,15]   findWorstP[3,2]  -7.0912238211629772e-02
    x[2,16]   allocateEach[16]  1
    x[2,16]   findWorstP[1,2]  -2.8297124481172650e-02
    x[2,16]   findWorstP[2,1]  1.8793287524980155e-02
    x[2,16]   findWorstP[2,3]  1.8793287524980155e-02
    x[2,16]   findWorstP[3,2]  -7.0689360564029052e-02
    x[2,17]   allocateEach[17]  1
    x[2,17]   findWorstP[1,2]  -2.4726096548629551e-02
    x[2,17]   findWorstP[2,1]  5.8241397246023716e-02
    x[2,17]   findWorstP[2,3]  5.8241397246023716e-02
    x[2,17]   findWorstP[3,2]  -4.0912906844572564e-02
    x[2,18]   allocateEach[18]  1
    x[2,18]   findWorstP[1,2]  -8.8219347118872235e-02
    x[2,18]   findWorstP[2,1]  8.5014645897779850e-02
    x[2,18]   findWorstP[2,3]  8.5014645897779850e-02
    x[2,18]   findWorstP[3,2]  -6.8943485657823392e-02
    x[2,19]   allocateEach[19]  1
    x[2,19]   findWorstP[1,2]  -7.5945107130837991e-02
    x[2,19]   findWorstP[2,1]  2.5637164992197984e-02
    x[2,19]   findWorstP[2,3]  2.5637164992197984e-02
    x[2,19]   findWorstP[3,2]  -4.9828012748601450e-02
    x[3,1]    allocateEach[1]  1
    x[3,1]    findWorstP[1,3]  -8.8004337583666770e-02
    x[3,1]    findWorstP[2,3]  -6.4469325741191947e-03
    x[3,1]    findWorstP[3,1]  3.0133057955617638e-02
    x[3,1]    findWorstP[3,2]  3.0133057955617638e-02
    x[3,2]    allocateEach[2]  1
    x[3,2]    findWorstP[1,3]  -9.0911640429271218e-02
    x[3,2]    findWorstP[2,3]  -3.9694489309863405e-03
    x[3,2]    findWorstP[3,1]  2.0794484521147377e-02
    x[3,2]    findWorstP[3,2]  2.0794484521147377e-02
    x[3,3]    allocateEach[3]  1
    x[3,3]    findWorstP[1,3]  -2.3548218225329997e-02
    x[3,3]    findWorstP[2,3]  -1.1052862109556792e-01
    x[3,3]    findWorstP[3,1]  4.8364449529356719e-03
    x[3,3]    findWorstP[3,2]  4.8364449529356719e-03
    x[3,4]    allocateEach[4]  1
    x[3,4]    findWorstP[1,3]  -6.1249672811576866e-02
    x[3,4]    findWorstP[2,3]  -1.2793944537217009e-01
    x[3,4]    findWorstP[3,1]  5.9879794655394031e-02
    x[3,4]    findWorstP[3,2]  5.9879794655394031e-02
    x[3,5]    allocateEach[5]  1
    x[3,5]    findWorstP[1,3]  -1.6602475414127064e-02
    x[3,5]    findWorstP[2,3]  -4.9713925921870308e-02
    x[3,5]    findWorstP[3,1]  5.2717992912490817e-02
    x[3,5]    findWorstP[3,2]  5.2717992912490817e-02
    x[3,6]    allocateEach[6]  1
    x[3,6]    findWorstP[1,3]  -8.4994204090790129e-02
    x[3,6]    findWorstP[2,3]  -6.5276903282323648e-02
    x[3,6]    findWorstP[3,1]  6.0971895128637564e-02
    x[3,6]    findWorstP[3,2]  6.0971895128637564e-02
    x[3,7]    allocateEach[7]  1
    x[3,7]    findWorstP[1,3]  -6.7204502112702388e-02
    x[3,7]    findWorstP[2,3]  -8.5589531605026151e-02
    x[3,7]    findWorstP[3,1]  4.8676478235997724e-02
    x[3,7]    findWorstP[3,2]  4.8676478235997724e-02
    x[3,8]    allocateEach[8]  1
    x[3,8]    findWorstP[1,3]  -7.4496129828366314e-02
    x[3,8]    findWorstP[2,3]  -1.9053354868734433e-02
    x[3,8]    findWorstP[3,1]  0.0559200017830212
    x[3,8]    findWorstP[3,2]  0.0559200017830212
    x[3,9]    allocateEach[9]  1
    x[3,9]    findWorstP[1,3]  -1.5518079497438583e-03
    x[3,9]    findWorstP[2,3]  -1.0113882121054506e-01
    x[3,9]    findWorstP[3,1]  6.1558806267319466e-02
    x[3,9]    findWorstP[3,2]  6.1558806267319466e-02
    x[3,10]   allocateEach[10]  1
    x[3,10]   findWorstP[1,3]  -0.0736173952062222
    x[3,10]   findWorstP[2,3]  -1.3701442689370090e-02
    x[3,10]   findWorstP[3,1]  3.9768801586888863e-02
    x[3,10]   findWorstP[3,2]  3.9768801586888863e-02
    x[3,11]   allocateEach[11]  1
    x[3,11]   findWorstP[1,3]  -4.5712896832816067e-03
    x[3,11]   findWorstP[2,3]  -3.1167017985709991e-02
    x[3,11]   findWorstP[3,1]  0.0428668008885389
    x[3,11]   findWorstP[3,2]  0.0428668008885389
    x[3,12]   allocateEach[12]  1
    x[3,12]   findWorstP[1,3]  -8.3993942340051614e-02
    x[3,12]   findWorstP[2,3]  -8.2947794902680071e-03
    x[3,12]   findWorstP[3,1]  6.5370014041291821e-02
    x[3,12]   findWorstP[3,2]  6.5370014041291821e-02
    x[3,13]   allocateEach[13]  1
    x[3,13]   findWorstP[1,3]  -1.9631305388325917e-04
    x[3,13]   findWorstP[2,3]  -2.4008322155000140e-02
    x[3,13]   findWorstP[3,1]  7.0912238211629772e-02
    x[3,13]   findWorstP[3,2]  7.0912238211629772e-02
    x[3,14]   allocateEach[14]  1
    x[3,14]   findWorstP[1,3]  -3.1989679542310141e-02
    x[3,14]   findWorstP[2,3]  -8.9394727476799274e-02
    x[3,14]   findWorstP[3,1]  6.9448674992385023e-02
    x[3,14]   findWorstP[3,2]  6.9448674992385023e-02
    x[3,15]   allocateEach[15]  1
    x[3,15]   findWorstP[1,3]  -6.1184235126949114e-02
    x[3,15]   findWorstP[2,3]  -4.8714719811656496e-02
    x[3,15]   findWorstP[3,1]  7.0912238211629772e-02
    x[3,15]   findWorstP[3,2]  7.0912238211629772e-02
    x[3,16]   allocateEach[16]  1
    x[3,16]   findWorstP[1,3]  -2.8297124481172650e-02
    x[3,16]   findWorstP[2,3]  -1.8793287524980155e-02
    x[3,16]   findWorstP[3,1]  7.0689360564029052e-02
    x[3,16]   findWorstP[3,2]  7.0689360564029052e-02
    x[3,17]   allocateEach[17]  1
    x[3,17]   findWorstP[1,3]  -2.4726096548629551e-02
    x[3,17]   findWorstP[2,3]  -5.8241397246023716e-02
    x[3,17]   findWorstP[3,1]  4.0912906844572564e-02
    x[3,17]   findWorstP[3,2]  4.0912906844572564e-02
    x[3,18]   allocateEach[18]  1
    x[3,18]   findWorstP[1,3]  -8.8219347118872235e-02
    x[3,18]   findWorstP[2,3]  -8.5014645897779850e-02
    x[3,18]   findWorstP[3,1]  6.8943485657823392e-02
    x[3,18]   findWorstP[3,2]  6.8943485657823392e-02
    x[3,19]   allocateEach[19]  1
    x[3,19]   findWorstP[1,3]  -7.5945107130837991e-02
    x[3,19]   findWorstP[2,3]  -2.5637164992197984e-02
    x[3,19]   findWorstP[3,1]  4.9828012748601450e-02
    x[3,19]   findWorstP[3,2]  4.9828012748601450e-02
    MARKER    'MARKER'                 'INTEND'
RHS
    RHS1      allocateEach[1]  1
    RHS1      allocateEach[2]  1
    RHS1      allocateEach[3]  1
    RHS1      allocateEach[4]  1
    RHS1      allocateEach[5]  1
    RHS1      allocateEach[6]  1
    RHS1      allocateEach[7]  1
    RHS1      allocateEach[8]  1
    RHS1      allocateEach[9]  1
    RHS1      allocateEach[10]  1
    RHS1      allocateEach[11]  1
    RHS1      allocateEach[12]  1
    RHS1      allocateEach[13]  1
    RHS1      allocateEach[14]  1
    RHS1      allocateEach[15]  1
    RHS1      allocateEach[16]  1
    RHS1      allocateEach[17]  1
    RHS1      allocateEach[18]  1
    RHS1      allocateEach[19]  1
    RHS1      allocateAllCash  1
BOUNDS
 UP BND1      z         1
 MI BND1      cashProportion[1]
 UP BND1      cashProportion[1]  1
 MI BND1      cashProportion[2]
 UP BND1      cashProportion[2]  1
 MI BND1      cashProportion[3]
 UP BND1      cashProportion[3]  1
 BV BND1      x[1,1]  
 BV BND1      x[1,2]  
 BV BND1      x[1,3]  
 BV BND1      x[1,4]  
 BV BND1      x[1,5]  
 BV BND1      x[1,6]  
 BV BND1      x[1,7]  
 BV BND1      x[1,8]  
 BV BND1      x[1,9]  
 BV BND1      x[1,10] 
 BV BND1      x[1,11] 
 BV BND1      x[1,12] 
 BV BND1      x[1,13] 
 BV BND1      x[1,14] 
 BV BND1      x[1,15] 
 BV BND1      x[1,16] 
 BV BND1      x[1,17] 
 BV BND1      x[1,18] 
 BV BND1      x[1,19] 
 BV BND1      x[2,1]  
 BV BND1      x[2,2]  
 BV BND1      x[2,3]  
 BV BND1      x[2,4]  
 BV BND1      x[2,5]  
 BV BND1      x[2,6]  
 BV BND1      x[2,7]  
 BV BND1      x[2,8]  
 BV BND1      x[2,9]  
 BV BND1      x[2,10] 
 BV BND1      x[2,11] 
 BV BND1      x[2,12] 
 BV BND1      x[2,13] 
 BV BND1      x[2,14] 
 BV BND1      x[2,15] 
 BV BND1      x[2,16] 
 BV BND1      x[2,17] 
 BV BND1      x[2,18] 
 BV BND1      x[2,19] 
 BV BND1      x[3,1]  
 BV BND1      x[3,2]  
 BV BND1      x[3,3]  
 BV BND1      x[3,4]  
 BV BND1      x[3,5]  
 BV BND1      x[3,6]  
 BV BND1      x[3,7]  
 BV BND1      x[3,8]  
 BV BND1      x[3,9]  
 BV BND1      x[3,10] 
 BV BND1      x[3,11] 
 BV BND1      x[3,12] 
 BV BND1      x[3,13] 
 BV BND1      x[3,14] 
 BV BND1      x[3,15] 
 BV BND1      x[3,16] 
 BV BND1      x[3,17] 
 BV BND1      x[3,18] 
 BV BND1      x[3,19] 
ENDATA
